198818
2,11,77,5,24,68,14,41,54,1,76,57,55,15,34,7,67,73,65,66,75,79,45,17,70,20,35,19,25,13,69,53,0,63,12,36,28,9,61,72,44,8,6,32,10,21,27,52,49,3,74,29,22,33,59,80,78,60,62,40,38,51,82,58,47,18,4,23,64,30,43,39,50,26,37,81,31,16,71,42,46,48,56